Route #1: 21
Route #2: 61 62 63 67 68 64 65 69 60
Route #3: 66 2 3 6 11
Route #4: 73 7 8 1 9 10 4 5
Route #5: 23 20 19 22 71 72 74 70 75 17 12 24 14 15 18 13 16
Route #6: 43 45 51 59 28 31 29 39 25 26 33 36 38 32 30 34 37
Route #7: 42 54
Route #8: 55 46 53 44 49 52 47
Route #9: 58 41 50 56 48 27 35
Route #10: 40 57
Cost 1429.7554740602723